%chk=freq.chk
%mem=32gb
%nproc=16
#p ub3lyp/6-31g(d) freq nosymm pop=nbo

Initial Condition (T1)

0 3
 C      -1.23436092        0.67361044       -0.52093478  
 H      -0.74913307       -0.18607096       -0.28025950  
 H      -2.25394317        0.69382787       -0.16050363  
 O      -0.65317359        1.45221196       -1.31785837  

